p cnf 47 30
5 23 -43 0
21 2 22 0
19 30 -10 0
3 4 -9 0
-42 17 27 0
9 -13 -8 0
-12 -35 -36 0
21 -14 44 0
-27 1 -42 0
10 37 -39 0
-37 29 -36 0
-2 -12 -41 0
-23 -16 40 0
8 -2 24 0
32 35 7 0
40 -47 -28 0
7 16 36 0
-37 -43 -8 0
36 31 14 0
-35 19 33 0
-13 33 28 0
-10 -43 -39 0
-3 8 44 0
39 6 -20 0
2 26 -14 0
-33 34 45 0
5 -18 -29 0
-44 20 -22 0
44 16 40 0
-43 42 29 0
